(declare-const x0 Bool)
(declare-const x1 Bool)
(declare-const x2 Bool)
(declare-const x3 Bool)
(declare-const x4 Bool)
(declare-const x5 Bool)
(declare-const x6 Bool)
(declare-const x7 Bool)
(declare-const x8 Bool)
(declare-const x9 Bool)
(declare-const x10 Bool)
(declare-const x11 Bool)
(declare-const x12 Bool)
(assert (and true (or x4 true)))
(assert (= x3 x2))
(assert (and (and (and (or false true) (= x9 x11)) x9) (= (= false true) (and false false))))
(assert (or (= false (= false (= true true))) (or x1 (or false true))))
(assert (= (and x1 false) (= true false)))
(assert (= (and (= (and x12 false) false) true) (= true x6)))
(assert (or true x3))
(assert (and (and x6 false) (= x12 (or (= true x4) x9))))
(assert true)
(assert (and (or x9 true) (= true x1)))
(check-sat)
